NAME : morphed20-5-23
COMMENT : Generated using the function morphInstances from the R-package netgen (Bossek,2015) - Number of clusters: 5 Alpha: 0.5
TYPE : TSP
DIMENSION : 20
EDGE_WEIGHT_TYPE : EUC_2D
NODE_COORD_SECTION
1 55.6635862638 67.6143330305
2 13.309104547 25.9542798995
3 16.9312627595 15.5710306359
4 66.2087403424 80.587787331
5 82.8950159534 37.3927460247
6 33.1304014226 73.4858884282
7 91.3471686886 64.7941420926
8 85.6106861431 76.8614831474
9 89.3052152753 20.1648292102
10 87.7133651505 71.3750189169
11 84.9562532667 59.8945880062
12 76.9023899607 29.5565300643
13 20.1758614783 24.7290748504
14 25.3235446292 41.926859934
15 87.8517443011 32.5930793228
16 16.0722460431 71.4365683802
17 38.4040249312 41.8804871161
18 58.7556158614 90.6171936826
19 76.5564810495 87.8146490766
20 34.2253806238 10.8660327922
EOF
